
n_res = 4;
rcap = [70, 75, 291, 299];
rtype = [1, 1, 2, 2];
n_tasks = 50;
modes =  [{1, 2, 3}, {4, 5, 6}, {7, 8, 9}, {10, 11, 12}, {13, 14, 15}, {16, 17, 18}, {19, 20, 21}, {22, 23, 24}, {25, 26, 27}, {28, 29, 30}, {31, 32, 33}, {34, 35, 36}, {37, 38, 39}, {40, 41, 42}, {43, 44, 45}, {46, 47, 48}, {49, 50, 51}, {52, 53, 54}, {55, 56, 57}, {58, 59, 60}, {61, 62, 63}, {64, 65, 66}, {67, 68, 69}, {70, 71, 72}, {73, 74, 75}, {76, 77, 78}, {79, 80, 81}, {82, 83, 84}, {85, 86, 87}, {88, 89, 90}, {91, 92, 93}, {94, 95, 96}, {97, 98, 99}, {100, 101, 102}, {103, 104, 105}, {106, 107, 108}, {109, 110, 111}, {112, 113, 114}, {115, 116, 117}, {118, 119, 120}, {121, 122, 123}, {124, 125, 126}, {127, 128, 129}, {130, 131, 132}, {133, 134, 135}, {136, 137, 138}, {139, 140, 141}, {142, 143, 144}, {145, 146, 147}, {148, 149, 150}];
succ =  [{48, 47, 45, 44, 29, 28, 27, 26, 25, 24, 21, 13, 12}, {49, 47, 46, 45, 44, 41, 29, 27, 25, 24, 21, 17, 12}, {48, 47, 42, 27, 18, 13, 7}, {49, 47, 46, 45, 25, 24, 19, 17, 12}, {47, 46, 44, 42, 41, 32, 28, 26, 24, 21, 12}, {49, 46, 45, 44, 41, 29, 24, 12}, {50, 38, 31, 23, 15, 14}, {48, 47, 45, 44, 43, 40, 38, 32, 31, 28, 23}, {45, 43, 42, 41, 40, 38, 32, 31, 28, 24}, {48, 46, 44, 42, 40, 37, 32, 28}, {49, 48, 45, 41, 35, 31, 25}, {43, 40, 38, 37, 36, 31, 23}, {46, 41, 40, 39, 32, 31}, {45, 44, 39, 37, 28}, {43, 41, 40, 37, 28}, {40, 39, 38, 35, 28}, {40, 32, 31, 28}, {46, 41, 31, 23}, {44, 42, 41, 38, 37}, {46, 42, 37, 31}, {38, 36, 35, 34}, {38, 37, 35, 34}, {39, 35, 34}, {37, 36, 34}, {42, 38, 37}, {43, 39, 35}, {35, 31}, {36, 34}, {42, 34}, {36, 34}, {34}, {35}, {39}, {}, {}, {}, {}, {}, {}, {}, {}, {}, {}, {}, {}, {}, {}, {}, {}, {}];
n_opt = 150;
dur = [6, 7, 9, 5, 7, 8, 1, 5, 6, 2, 5, 6, 1, 3, 9, 3, 5, 7, 2, 6, 7, 1, 7, 8, 3, 4, 5, 4, 6, 10, 1, 2, 8, 3, 9, 10, 5, 7, 10, 3, 4, 5, 4, 7, 9, 1, 2, 3, 1, 2, 5, 6, 7, 8, 1, 3, 10, 2, 3, 4, 3, 5, 6, 2, 5, 8, 2, 8, 9, 1, 8, 10, 1, 2, 10, 2, 4, 9, 3, 4, 9, 4, 8, 10, 1, 4, 5, 2, 4, 6, 6, 9, 10, 3, 4, 7, 3, 4, 5, 2, 3, 9, 4, 5, 7, 2, 5, 6, 2, 3, 4, 1, 4, 10, 1, 6, 9, 2, 3, 8, 1, 6, 10, 2, 4, 8, 4, 5, 6, 3, 4, 6, 2, 3, 6, 4, 6, 7, 7, 8, 9, 2, 4, 10, 2, 3, 10, 1, 6, 7];
rreq = [|7, 3, 3, 6, 4, 4, 1, 1, 1, 9, 6, 3, 1, 1, 1, 7, 5, 4, 9, 5, 2, 7, 5, 1, 4, 3, 2, 8, 6, 5, 6, 4, 3, 9, 6, 3, 8, 6, 5, 9, 9, 9, 3, 3, 1, 5, 4, 4, 8, 8, 7, 8, 5, 4, 7, 5, 5, 4, 2, 2, 9, 7, 7, 6, 6, 6, 3, 3, 2, 3, 3, 1, 5, 4, 4, 9, 5, 3, 10, 6, 5, 3, 1, 1, 7, 6, 6, 2, 2, 2, 10, 6, 5, 10, 8, 8, 5, 5, 5, 8, 4, 3, 9, 4, 4, 9, 7, 7, 4, 3, 3, 7, 5, 5, 10, 7, 5, 6, 5, 2, 7, 6, 5, 6, 5, 4, 4, 3, 2, 8, 5, 4, 7, 5, 5, 5, 4, 3, 5, 3, 3, 8, 7, 4, 5, 5, 4, 9, 7, 3
 |3, 3, 3, 1, 1, 1, 5, 3, 3, 9, 6, 3, 7, 5, 5, 7, 4, 2, 2, 2, 1, 6, 6, 6, 8, 5, 4, 8, 8, 8, 7, 5, 5, 6, 5, 4, 6, 5, 4, 9, 9, 9, 4, 4, 3, 7, 5, 4, 7, 7, 6, 7, 6, 6, 7, 7, 7, 3, 2, 2, 6, 5, 4, 3, 2, 1, 8, 4, 1, 4, 2, 2, 9, 8, 8, 9, 5, 4, 8, 7, 7, 7, 7, 6, 10, 6, 4, 2, 2, 1, 8, 8, 7, 8, 5, 3, 7, 5, 3, 7, 6, 5, 4, 2, 2, 6, 5, 4, 6, 6, 6, 8, 7, 7, 7, 6, 2, 7, 5, 4, 2, 2, 2, 8, 7, 4, 10, 7, 6, 7, 7, 4, 8, 8, 8, 7, 5, 2, 10, 6, 4, 7, 4, 4, 5, 3, 3, 5, 3, 2
 |6, 4, 3, 3, 2, 2, 7, 6, 4, 4, 3, 2, 7, 5, 4, 8, 8, 4, 7, 7, 2, 5, 5, 5, 7, 6, 6, 8, 8, 8, 6, 5, 3, 5, 3, 1, 9, 8, 8, 5, 5, 3, 8, 8, 6, 8, 7, 7, 3, 2, 2, 10, 9, 9, 8, 8, 7, 7, 7, 7, 8, 8, 8, 8, 7, 5, 7, 6, 5, 8, 5, 4, 2, 2, 1, 5, 3, 1, 4, 3, 3, 6, 4, 4, 5, 4, 4, 6, 5, 4, 6, 4, 2, 4, 4, 2, 2, 2, 2, 7, 6, 6, 4, 4, 4, 8, 7, 7, 8, 8, 5, 7, 6, 6, 9, 8, 7, 5, 4, 3, 9, 6, 3, 4, 4, 2, 6, 6, 6, 7, 6, 4, 6, 4, 3, 2, 2, 2, 10, 7, 4, 3, 2, 1, 10, 10, 10, 9, 5, 5
 |6, 4, 4, 8, 8, 7, 9, 9, 9, 10, 8, 8, 6, 4, 1, 6, 5, 4, 3, 3, 3, 8, 6, 5, 9, 8, 6, 5, 2, 1, 7, 7, 7, 9, 8, 8, 8, 5, 5, 3, 2, 1, 8, 7, 5, 1, 1, 1, 6, 6, 2, 6, 6, 2, 10, 8, 8, 7, 5, 3, 5, 4, 4, 4, 4, 4, 6, 5, 5, 8, 5, 4, 6, 6, 5, 7, 6, 2, 3, 2, 1, 6, 5, 5, 7, 4, 2, 7, 5, 4, 8, 7, 3, 9, 8, 5, 4, 3, 2, 7, 4, 2, 7, 7, 6, 2, 1, 1, 6, 2, 2, 9, 8, 7, 8, 7, 6, 9, 8, 5, 10, 8, 8, 6, 5, 4, 6, 4, 2, 8, 8, 8, 6, 5, 2, 6, 6, 6, 7, 5, 4, 3, 2, 1, 5, 5, 5, 9, 7, 5|];